certificates/rado_a9_c111_N18.cnf
c Rad2 upper bound instance: x1 + 9*x2 - x3 = 111, interval [1,18]
p cnf 18 72
1 7 13 0
-1 -7 -13 0
1 14 16 0
-1 -14 -16 0
2 8 13 0
-2 -8 -13 0
2 14 17 0
-2 -14 -17 0
3 9 13 0
-3 -9 -13 0
3 14 18 0
-3 -14 -18 0
1 4 12 0
-1 -4 -12 0
4 10 13 0
-4 -10 -13 0
2 5 12 0
-2 -5 -12 0
5 11 13 0
-5 -11 -13 0
3 6 12 0
-3 -6 -12 0
6 12 13 0
-6 -12 -13 0
4 7 12 0
-4 -7 -12 0
7 13 0
-7 -13 0
5 8 12 0
-5 -8 -12 0
8 13 14 0
-8 -13 -14 0
6 9 12 0
-6 -9 -12 0
9 13 15 0
-9 -13 -15 0
7 10 12 0
-7 -10 -12 0
10 13 16 0
-10 -13 -16 0
8 11 12 0
-8 -11 -12 0
11 13 17 0
-11 -13 -17 0
9 12 0
-9 -12 0
12 13 18 0
-12 -13 -18 0
1 11 13 0
-1 -11 -13 0
10 12 13 0
-10 -12 -13 0
2 11 14 0
-2 -11 -14 0
11 12 14 0
-11 -12 -14 0
3 11 15 0
-3 -11 -15 0
12 15 0
-12 -15 0
4 11 16 0
-4 -11 -16 0
12 13 16 0
-12 -13 -16 0
5 11 17 0
-5 -11 -17 0
12 14 17 0
-12 -14 -17 0
6 11 18 0
-6 -11 -18 0
12 15 18 0
-12 -15 -18 0
