certificates/rado_a9_c111_N18.drat
-15 -16 -18 0
15 -18 0
-18 0
-15 0
12 0
-9 0
13 0
-7 0
-6 0
-10 0
11 0
-5 0
-8 0
-17 0
-1 0
-14 0
16 0
0
